Run results, caa 28-Sep-2017

Optimize a model with 1900 rows, 1300 columns and 11644 nonzeros
Model has 100 quadratic objective terms
Variable types: 800 continuous, 500 integer (500 binary)
Coefficient statistics:
  Matrix range     [1e-02, 1e+02]
  Objective range  [0e+00, 0e+00]
  QObjective range [2e+00, 2e+00]
  Bounds range     [1e+00, 1e+00]
  RHS range        [7e-03, 1e+02]
Presolve removed 960 rows and 393 columns
Presolve time: 0.02s
Presolved: 940 rows, 907 columns, 9470 nonzeros
Presolved model has 100 quadratic objective terms

Loaded MIP start with objective 14.7821

Variable types: 510 continuous, 397 integer (397 binary)
Presolve removed 1 rows and 1 columns
Presolved: 939 rows, 906 columns, 9468 nonzeros
Presolved model has 100 quadratic objective terms

       Nodes    |    Current Node    |     Objective Bounds      |     Work
    Expl Unexpl |  Obj  Depth IntInf | Incumbent    BestBd   Gap | It/Node Time
...
1322296 1185215    9.27050   87  142   13.33679    6.36911  52.2%  10.8  630s
...
